Route #1: 2 48 38 32 34 46 13 9 16
Route #2: 26 19 15 49 17 22 50 12 45 4
Route #3: 23 39 14 21 11 28 24 31 3
Route #4: 1 30 18 20 42 40
Route #5: 37 47 6 36 25 41
Route #6: 44 10 29 27 8 5 51
Route #7: 35 33 7 43
Cost 757